ISTS is enabled.
Day	0	Optimize a model with 3472 rows, 30204 columns and 349889 nonzeros
Variable types: 280 continuous, 29924 integer (28496 binary)
Coefficient statistics:
  Matrix range     [1e+00, 1e+02]
  Objective range  [9e-01, 1e+03]
  Bounds range     [1e+00, 9e+01]
  RHS range        [1e+00, 3e+03]
Found heuristic solution: objective 526185
Presolve removed 335 rows and 3648 columns
Presolve time: 1.24s
Presolved: 3137 rows, 26556 columns, 274030 nonzeros
Variable types: 0 continuous, 26556 integer (25175 binary)

Root relaxation: objective 4.774655e+05, 1341 iterations, 0.05 seconds

    Nodes    |    Current Node    |     Objective Bounds      |     Work
 Expl Unexpl |  Obj  Depth IntInf | Incumbent    BestBd   Gap | It/Node Time

     0     0 477465.462    0   84 526184.550 477465.462  9.26%     -    1s
H    0     0                    479565.46226 477465.462  0.44%     -    1s
H    0     0                    479436.07996 477465.462  0.41%     -    1s
H    0     0                    477583.72459 477465.462  0.02%     -    1s
     0     0 477503.190    0   39 477583.725 477503.190  0.02%     -    1s
     0     0 477503.190    0   72 477583.725 477503.190  0.02%     -    2s
H    0     0                    477567.23516 477503.190  0.01%     -    2s
     0     0 477503.190    0   71 477567.235 477503.190  0.01%     -    2s
     0     0 477514.584    0   46 477567.235 477514.584  0.01%     -    2s
     0     0 477548.714    0   37 477567.235 477548.714  0.00%     -    2s

Cutting planes:
  Gomory: 33
  Cover: 62
  Clique: 40
  MIR: 68

Explored 0 nodes (3988 simplex iterations) in 2.80 seconds
Thread count was 1 (of 16 available processors)

Solution count 6: 477567 477584 477584 ... 526185
Pool objective bound 477549

Optimal solution found (tolerance 1.00e-04)
Best objective 4.775672351569e+05, best bound 4.775487143894e+05, gap 0.0039%
	MIPObjVal:	477567.23515688436	runtime:	2.7999649047851562	patientsNumber:	140	room Occupancy:	0.25462962962962965	OR Occupancy:	0.20981178648565257
roomCost:	5540.0	genderPolicy:	0.0	transferCost:	100.0	delayCost:	60.0	overCrowdRisk:	1.0	overtime:	0.0	idleRoom:	51940.0	idleOR:	291000.0	eRoomIdle:	12665.130480811264	eORIdle:	116261.10467607314	roomU:	0.0	orU:	0.0
Day	1	Optimize a model with 3362 rows, 31199 columns and 372749 nonzeros
Variable types: 270 continuous, 30929 integer (29552 binary)
Coefficient statistics:
  Matrix range     [1e+00, 1e+02]
  Objective range  [9e-01, 1e+03]
  Bounds range     [1e+00, 9e+01]
  RHS range        [1e+00, 3e+03]
Found heuristic solution: objective 479906
Presolve removed 381 rows and 3926 columns
Presolve time: 0.77s
Presolved: 2981 rows, 27273 columns, 288275 nonzeros
Variable types: 0 continuous, 27273 integer (25972 binary)

Root relaxation: objective 4.305904e+05, 1500 iterations, 0.11 seconds

    Nodes    |    Current Node    |     Objective Bounds      |     Work
 Expl Unexpl |  Obj  Depth IntInf | Incumbent    BestBd   Gap | It/Node Time

     0     0 430590.370    0   62 479906.092 430590.370  10.3%     -    1s
H    0     0                    432140.36996 430590.370  0.36%     -    1s
H    0     0                    432090.36996 430590.370  0.35%     -    1s
H    0     0                    430682.26625 430590.370  0.02%     -    1s
     0     0 430623.951    0   74 430682.266 430623.951  0.01%     -    1s
     0     0 430623.951    0   44 430682.266 430623.951  0.01%     -    2s
     0     0 430632.301    0  113 430682.266 430632.301  0.01%     -    2s
     0     0 430661.908    0   89 430682.266 430661.908  0.00%     -    2s

Cutting planes:
  Gomory: 23
  Cover: 21
  Clique: 24
  MIR: 30
  GUB cover: 1

Explored 0 nodes (3584 simplex iterations) in 2.16 seconds
Thread count was 1 (of 16 available processors)

Solution count 5: 430682 430682 432090 ... 479906
Pool objective bound 430662

Optimal solution found (tolerance 1.00e-04)
Best objective 4.306822662459e+05, best bound 4.306619084337e+05, gap 0.0047%
	MIPObjVal:	430682.2662459443	runtime:	2.163529872894287	patientsNumber:	149	room Occupancy:	0.18518518518518517	OR Occupancy:	0.0
roomCost:	5460.0	genderPolicy:	0.0	transferCost:	0.0	delayCost:	65.0	overCrowdRisk:	1.0	overtime:	0.0	idleRoom:	47240.0	idleOR:	257500.0	eRoomIdle:	12271.503838840508	eORIdle:	108144.76240710376	roomU:	0.0	orU:	0.0
Day	2	Optimize a model with 3246 rows, 34850 columns and 425541 nonzeros
Variable types: 260 continuous, 34590 integer (33264 binary)
Coefficient statistics:
  Matrix range     [1e+00, 1e+02]
  Objective range  [1e+00, 1e+03]
  Bounds range     [1e+00, 9e+01]
  RHS range        [1e+00, 3e+03]
Found heuristic solution: objective 491121
Presolve removed 316 rows and 4579 columns
Presolve time: 0.97s
Presolved: 2930 rows, 30271 columns, 330162 nonzeros
Found heuristic solution: objective 460885.06887
Variable types: 0 continuous, 30271 integer (28991 binary)

Root relaxation: objective 4.378215e+05, 1631 iterations, 0.09 seconds

    Nodes    |    Current Node    |     Objective Bounds      |     Work
 Expl Unexpl |  Obj  Depth IntInf | Incumbent    BestBd   Gap | It/Node Time

     0     0 437821.482    0  110 460885.069 437821.482  5.00%     -    1s
H    0     0                    440571.48180 437821.482  0.62%     -    1s
H    0     0                    440471.48180 437821.482  0.60%     -    1s
H    0     0                    437911.64219 437821.482  0.02%     -    1s
     0     0 437830.710    0  139 437911.642 437830.710  0.02%     -    1s
     0     0 437830.710    0   54 437911.642 437830.710  0.02%     -    2s
H    0     0                    437877.06737 437830.710  0.01%     -    2s
     0     0 437841.054    0   53 437877.067 437841.054  0.01%     -    2s

Cutting planes:
  Gomory: 18
  Cover: 34
  Clique: 36
  MIR: 46

Explored 0 nodes (4530 simplex iterations) in 2.59 seconds
Thread count was 1 (of 16 available processors)

Solution count 7: 437877 437912 437912 ... 490981
Pool objective bound 437841

Optimal solution found (tolerance 1.00e-04)
Best objective 4.378770673704e+05, best bound 4.378410542789e+05, gap 0.0082%
	MIPObjVal:	437877.06737043604	runtime:	2.5881030559539795	patientsNumber:	152	room Occupancy:	0.12037037037037036	OR Occupancy:	0.0
roomCost:	5400.0	genderPolicy:	0.0	transferCost:	0.0	delayCost:	65.0	overCrowdRisk:	3.0	overtime:	0.0	idleRoom:	42380.0	idleOR:	250800.0	eRoomIdle:	11999.143252213808	eORIdle:	127229.92411822216	roomU:	0.0	orU:	0.0
Day	3	Optimize a model with 3137 rows, 39169 columns and 477081 nonzeros
Variable types: 250 continuous, 38919 integer (37644 binary)
Coefficient statistics:
  Matrix range     [1e+00, 1e+02]
  Objective range  [1e+00, 1e+03]
  Bounds range     [1e+00, 9e+01]
  RHS range        [1e+00, 3e+03]
Found heuristic solution: objective 504845
Presolve removed 266 rows and 5119 columns
Presolve time: 1.04s
Presolved: 2871 rows, 34050 columns, 371440 nonzeros
Variable types: 0 continuous, 34050 integer (32795 binary)

Root relaxation: objective 4.437702e+05, 1764 iterations, 0.11 seconds

    Nodes    |    Current Node    |     Objective Bounds      |     Work
 Expl Unexpl |  Obj  Depth IntInf | Incumbent    BestBd   Gap | It/Node Time

     0     0 443770.167    0  114 504845.362 443770.167  12.1%     -    1s
H    0     0                    446620.16698 443770.167  0.64%     -    1s
H    0     0                    446570.16698 443770.167  0.63%     -    1s
H    0     0                    443864.51731 443770.167  0.02%     -    1s
     0     0 443787.972    0   95 443864.517 443787.972  0.02%     -    2s
     0     0 443787.972    0   66 443864.517 443787.972  0.02%     -    2s
H    0     0                    443829.97484 443787.972  0.01%     -    3s

Explored 0 nodes (4484 simplex iterations) in 3.01 seconds
Thread count was 1 (of 16 available processors)

Solution count 6: 443830 443865 443865 ... 504845
Pool objective bound 443788

Optimal solution found (tolerance 1.00e-04)
Best objective 4.438299748431e+05, best bound 4.437879721109e+05, gap 0.0095%
	MIPObjVal:	443829.9748430931	runtime:	3.009890079498291	patientsNumber:	162	room Occupancy:	0.18981481481481483	OR Occupancy:	0.18667078062326442
roomCost:	5310.0	genderPolicy:	0.0	transferCost:	0.0	delayCost:	70.0	overCrowdRisk:	2.0	overtime:	0.0	idleRoom:	37340.0	idleOR:	244350.0	eRoomIdle:	11822.723651441376	eORIdle:	144935.25119165162	roomU:	0.0	orU:	0.0
Day	4	Optimize a model with 3026 rows, 36564 columns and 439115 nonzeros
Variable types: 240 continuous, 36324 integer (35100 binary)
Coefficient statistics:
  Matrix range     [1e+00, 1e+02]
  Objective range  [1e+00, 1e+03]
  Bounds range     [1e+00, 9e+01]
  RHS range        [1e+00, 3e+03]
Found heuristic solution: objective 455957
Presolve removed 257 rows and 4375 columns
Presolve time: 0.93s
Presolved: 2769 rows, 32189 columns, 347803 nonzeros
Variable types: 0 continuous, 32189 integer (30988 binary)

Root relaxation: objective 3.916083e+05, 1757 iterations, 0.10 seconds

    Nodes    |    Current Node    |     Objective Bounds      |     Work
 Expl Unexpl |  Obj  Depth IntInf | Incumbent    BestBd   Gap | It/Node Time

     0     0 391608.317    0  100 455956.909 391608.317  14.1%     -    1s
H    0     0                    395190.78281 391608.317  0.91%     -    1s
H    0     0                    394108.31688 391608.317  0.63%     -    1s
H    0     0                    394058.31688 391608.317  0.62%     -    1s
H    0     0                    391687.76810 391608.317  0.02%     -    1s
     0     0 391644.049    0   56 391687.768 391644.049  0.01%     -    1s
     0     0 391644.049    0   49 391687.768 391644.049  0.01%     -    2s
     0     0 391644.049    0   80 391687.768 391644.049  0.01%     -    2s
     0     0 391664.654    0   83 391687.768 391664.654  0.01%     -    2s

Cutting planes:
  Gomory: 19
  Cover: 26
  Clique: 27
  MIR: 31

Explored 0 nodes (4525 simplex iterations) in 2.72 seconds
Thread count was 1 (of 16 available processors)

Solution count 5: 391688 394058 394108 ... 455957
Pool objective bound 391665

Optimal solution found (tolerance 1.00e-04)
Best objective 3.916877680982e+05, best bound 3.916646544604e+05, gap 0.0059%
	MIPObjVal:	391687.76809815137	runtime:	2.717862129211426	patientsNumber:	170	room Occupancy:	0.2962962962962963	OR Occupancy:	0.38876889848812096
roomCost:	5670.0	genderPolicy:	0.0	transferCost:	0.0	delayCost:	65.0	overCrowdRisk:	2.0	overtime:	0.0	idleRoom:	32760.0	idleOR:	212450.0	eRoomIdle:	11170.48342463822	eORIdle:	129570.28467351313	roomU:	0.0	orU:	0.0
Day	5	Optimize a model with 2909 rows, 32780 columns and 353458 nonzeros
Variable types: 230 continuous, 32550 integer (31377 binary)
Coefficient statistics:
  Matrix range     [1e+00, 1e+02]
  Objective range  [1e+00, 1e+03]
  Bounds range     [1e+00, 9e+01]
  RHS range        [1e+00, 3e+03]
Found heuristic solution: objective 388126
Presolve removed 249 rows and 3485 columns
Presolve time: 0.80s
Presolved: 2660 rows, 29295 columns, 288096 nonzeros
Variable types: 0 continuous, 29295 integer (28146 binary)

Root relaxation: objective 3.304645e+05, 1431 iterations, 0.06 seconds

    Nodes    |    Current Node    |     Objective Bounds      |     Work
 Expl Unexpl |  Obj  Depth IntInf | Incumbent    BestBd   Gap | It/Node Time

     0     0 330464.526    0   94 388126.114 330464.526  14.9%     -    0s
H    0     0                    332814.52570 330464.526  0.71%     -    1s
H    0     0                    332805.38846 330464.526  0.70%     -    1s
H    0     0                    332764.52570 330464.526  0.69%     -    1s
H    0     0                    330564.96702 330464.526  0.03%     -    1s
     0     0 330526.751    0   51 330564.967 330526.751  0.01%     -    1s
     0     0 330526.751    0   82 330564.967 330526.751  0.01%     -    2s
     0     0 330547.930    0   90 330564.967 330547.930  0.01%     -    2s

Cutting planes:
  Gomory: 31
  Cover: 40
  Clique: 92
  MIR: 49
  GUB cover: 1

Explored 0 nodes (4070 simplex iterations) in 2.25 seconds
Thread count was 1 (of 16 available processors)

Solution count 6: 330565 330565 332765 ... 388126
Pool objective bound 330548

Optimal solution found (tolerance 1.00e-04)
Best objective 3.305649670213e+05, best bound 3.305479297663e+05, gap 0.0052%
	MIPObjVal:	330564.9670212729	runtime:	2.2555830478668213	patientsNumber:	172	room Occupancy:	0.3611111111111111	OR Occupancy:	0.2823202715211355
roomCost:	5890.0	genderPolicy:	0.0	transferCost:	0.0	delayCost:	55.0	overCrowdRisk:	6.0	overtime:	0.0	idleRoom:	28780.0	idleOR:	189200.0	eRoomIdle:	10009.726225976772	eORIdle:	96624.24079529612	roomU:	0.0	orU:	0.0
Day	6	Optimize a model with 2794 rows, 29787 columns and 299131 nonzeros
Variable types: 220 continuous, 29567 integer (28445 binary)
Coefficient statistics:
  Matrix range     [1e+00, 1e+02]
  Objective range  [1e+00, 1e+03]
  Bounds range     [1e+00, 9e+01]
  RHS range        [1e+00, 3e+03]
Found heuristic solution: objective 344333
Presolve removed 242 rows and 3542 columns
Presolve time: 0.60s
Presolved: 2552 rows, 26245 columns, 240702 nonzeros
Variable types: 0 continuous, 26245 integer (25149 binary)

Root relaxation: objective 2.821672e+05, 1342 iterations, 0.06 seconds

    Nodes    |    Current Node    |     Objective Bounds      |     Work
 Expl Unexpl |  Obj  Depth IntInf | Incumbent    BestBd   Gap | It/Node Time

     0     0 282167.167    0   64 344333.117 282167.167  18.1%     -    0s
H    0     0                    283767.16652 282167.167  0.56%     -    0s
H    0     0                    283628.11718 282167.167  0.52%     -    0s
H    0     0                    282212.26681 282167.167  0.02%     -    1s
*    0     0               0    282211.83904 282211.839  0.00%     -    1s

Cutting planes:
  Cover: 16
  Clique: 6
  MIR: 20

Explored 0 nodes (1760 simplex iterations) in 1.13 seconds
Thread count was 1 (of 16 available processors)

Solution count 5: 282212 282212 283628 ... 344333
Pool objective bound 282212

Optimal solution found (tolerance 1.00e-04)
Best objective 2.822118390428e+05, best bound 2.822118390428e+05, gap 0.0000%
	MIPObjVal:	282211.83904277545	runtime:	1.1260218620300293	patientsNumber:	176	room Occupancy:	0.39351851851851855	OR Occupancy:	0.1064486269669855
roomCost:	5620.0	genderPolicy:	0.0	transferCost:	0.0	delayCost:	80.0	overCrowdRisk:	4.0	overtime:	0.0	idleRoom:	25260.0	idleOR:	157750.0	eRoomIdle:	8611.346367366195	eORIdle:	84886.49267540924	roomU:	0.0	orU:	0.0
Day	7	Optimize a model with 2690 rows, 32273 columns and 295609 nonzeros
Variable types: 210 continuous, 32063 integer (30992 binary)
Coefficient statistics:
  Matrix range     [1e+00, 1e+02]
  Objective range  [1e+00, 1e+03]
  Bounds range     [1e+00, 9e+01]
  RHS range        [1e+00, 3e+03]
Found heuristic solution: objective 305370
Presolve removed 218 rows and 4006 columns
Presolve time: 0.58s
Presolved: 2472 rows, 28267 columns, 241118 nonzeros
Variable types: 0 continuous, 28267 integer (27218 binary)

Root relaxation: objective 2.408318e+05, 1407 iterations, 0.06 seconds

    Nodes    |    Current Node    |     Objective Bounds      |     Work
 Expl Unexpl |  Obj  Depth IntInf | Incumbent    BestBd   Gap | It/Node Time

     0     0 240831.772    0   60 305369.840 240831.772  21.1%     -    0s
H    0     0                    242331.77238 240831.772  0.62%     -    0s
H    0     0                    240885.00900 240831.772  0.02%     -    1s
     0     0 240874.330    0   60 240885.009 240874.330  0.00%     -    1s

Cutting planes:
  Cover: 24
  Clique: 41
  MIR: 49

Explored 0 nodes (2214 simplex iterations) in 1.20 seconds
Thread count was 1 (of 16 available processors)

Solution count 3: 240885 242332 305370 
Pool objective bound 240874

Optimal solution found (tolerance 1.00e-04)
Best objective 2.408850089974e+05, best bound 2.408743297611e+05, gap 0.0044%
	MIPObjVal:	240885.00899742212	runtime:	1.1999430656433105	patientsNumber:	191	room Occupancy:	0.4351851851851852	OR Occupancy:	0.41808083924714595
roomCost:	5460.0	genderPolicy:	0.0	transferCost:	0.0	delayCost:	75.0	overCrowdRisk:	3.0	overtime:	0.0	idleRoom:	21440.0	idleOR:	118150.0	eRoomIdle:	7604.963603251847	eORIdle:	88152.0453941703	roomU:	0.0	orU:	0.0
Day	8	Optimize a model with 2569 rows, 29973 columns and 251983 nonzeros
Variable types: 200 continuous, 29773 integer (28753 binary)
Coefficient statistics:
  Matrix range     [1e+00, 1e+02]
  Objective range  [1e+00, 1e+03]
  Bounds range     [1e+00, 9e+01]
  RHS range        [1e+00, 3e+03]
Found heuristic solution: objective 251307
Presolve removed 217 rows and 3679 columns
Presolve time: 0.59s
Presolved: 2352 rows, 26294 columns, 205747 nonzeros
Variable types: 0 continuous, 26294 integer (25292 binary)

Root relaxation: objective 1.886694e+05, 1329 iterations, 0.05 seconds

    Nodes    |    Current Node    |     Objective Bounds      |     Work
 Expl Unexpl |  Obj  Depth IntInf | Incumbent    BestBd   Gap | It/Node Time

     0     0 188669.382    0   68 251307.255 188669.382  24.9%     -    0s
H    0     0                    189764.03406 188669.382  0.58%     -    0s
H    0     0                    188695.69841 188669.382  0.01%     -    1s
     0     0 188685.911    0   70 188695.698 188685.911  0.01%     -    1s

Cutting planes:
  Cover: 17
  Clique: 46
  MIR: 30
  Zero half: 1

Explored 0 nodes (1965 simplex iterations) in 1.24 seconds
Thread count was 1 (of 16 available processors)

Solution count 3: 188696 189764 251307 
Pool objective bound 188686

Optimal solution found (tolerance 1.00e-04)
Best objective 1.886956984127e+05, best bound 1.886859108916e+05, gap 0.0052%
	MIPObjVal:	188695.69841274893	runtime:	1.2447638511657715	patientsNumber:	189	room Occupancy:	0.35648148148148145	OR Occupancy:	0.0
roomCost:	4680.0	genderPolicy:	0.0	transferCost:	0.0	delayCost:	30.0	overCrowdRisk:	4.0	overtime:	60.0	idleRoom:	18260.0	idleOR:	93750.0	eRoomIdle:	6261.245358856289	eORIdle:	65650.45305389265	roomU:	0.0	orU:	0.0
Day	9	Optimize a model with 2439 rows, 31397 columns and 265508 nonzeros
Variable types: 190 continuous, 31207 integer (30238 binary)
Coefficient statistics:
  Matrix range     [1e+00, 1e+02]
  Objective range  [9e-01, 1e+03]
  Bounds range     [1e+00, 9e+01]
  RHS range        [1e+00, 3e+03]
Found heuristic solution: objective 252926
Presolve removed 206 rows and 4256 columns
Presolve time: 0.52s
Presolved: 2233 rows, 27141 columns, 214543 nonzeros
Variable types: 0 continuous, 27141 integer (26193 binary)

Root relaxation: objective 1.871011e+05, 1261 iterations, 0.06 seconds

    Nodes    |    Current Node    |     Objective Bounds      |     Work
 Expl Unexpl |  Obj  Depth IntInf | Incumbent    BestBd   Gap | It/Node Time

     0     0 187101.107    0   73 252926.054 187101.107  26.0%     -    0s
H    0     0                    188418.15587 187101.107  0.70%     -    0s
H    0     0                    188189.10593 187101.107  0.58%     -    0s
H    0     0                    188188.15587 187101.107  0.58%     -    0s
H    0     0                    187133.05776 187101.107  0.02%     -    1s
     0     0 187116.107    0   66 187133.058 187116.107  0.01%     -    1s

Cutting planes:
  Cover: 16
  Clique: 43
  MIR: 37
  Zero half: 1

Explored 0 nodes (2112 simplex iterations) in 1.35 seconds
Thread count was 1 (of 16 available processors)

Solution count 5: 187133 188188 188189 ... 252926
Pool objective bound 187116

Optimal solution found (tolerance 1.00e-04)
Best objective 1.871330577561e+05, best bound 1.871161068151e+05, gap 0.0091%
	MIPObjVal:	187133.0577561411	runtime:	1.3488218784332275	patientsNumber:	178	room Occupancy:	0.22685185185185186	OR Occupancy:	0.0
roomCost:	4330.0	genderPolicy:	0.0	transferCost:	0.0	delayCost:	25.0	overCrowdRisk:	5.0	overtime:	60.0	idleRoom:	14800.0	idleOR:	88000.0	eRoomIdle:	5185.319374363974	eORIdle:	74727.73838177712	roomU:	0.0	orU:	0.0
Day	10	Optimize a model with 2312 rows, 34527 columns and 297288 nonzeros
Variable types: 180 continuous, 34347 integer (33429 binary)
Coefficient statistics:
  Matrix range     [1e+00, 1e+02]
  Objective range  [8e-01, 1e+03]
  Bounds range     [1e+00, 9e+01]
  RHS range        [1e+00, 3e+03]
Found heuristic solution: objective 250770
Presolve removed 175 rows and 4781 columns
Presolve time: 0.56s
Presolved: 2137 rows, 29746 columns, 243762 nonzeros
Variable types: 0 continuous, 29746 integer (28831 binary)

Root relaxation: objective 1.861020e+05, 1284 iterations, 0.07 seconds

    Nodes    |    Current Node    |     Objective Bounds      |     Work
 Expl Unexpl |  Obj  Depth IntInf | Incumbent    BestBd   Gap | It/Node Time

     0     0 186101.963    0   56 250769.915 186101.963  25.8%     -    0s
H    0     0                    187283.79902 186101.963  0.63%     -    0s
H    0     0                    186235.09770 186101.963  0.07%     -    1s
     0     0 186204.993    0   71 186235.098 186204.993  0.02%     -    1s
     0     0 186204.993    0   56 186235.098 186204.993  0.02%     -    2s
H    0     0                    186229.00272 186204.993  0.01%     -    2s
     0     0 186204.993    0   88 186229.003 186204.993  0.01%     -    2s
     0     1 186204.993    0   55 186229.003 186204.993  0.01%     -    2s

Explored 3 nodes (4744 simplex iterations) in 2.80 seconds
Thread count was 1 (of 16 available processors)

Solution count 4: 186229 186235 187284 250770 
Pool objective bound 186229

Optimal solution found (tolerance 1.00e-04)
Best objective 1.862290027153e+05, best bound 1.862290027153e+05, gap 0.0000%
	MIPObjVal:	186229.0027152935	runtime:	2.8025600910186768	patientsNumber:	170	room Occupancy:	0.24074074074074073	OR Occupancy:	0.14964517124344337
roomCost:	4390.0	genderPolicy:	0.0	transferCost:	0.0	delayCost:	55.0	overCrowdRisk:	10.0	overtime:	60.0	idleRoom:	10760.0	idleOR:	83100.0	eRoomIdle:	4599.866833838543	eORIdle:	83254.13588145495	roomU:	0.0	orU:	0.0
Day	11	Optimize a model with 2198 rows, 33618 columns and 281024 nonzeros
Variable types: 170 continuous, 33448 integer (32581 binary)
Coefficient statistics:
  Matrix range     [1e+00, 1e+02]
  Objective range  [8e-01, 1e+03]
  Bounds range     [1e+00, 9e+01]
  RHS range        [1e+00, 3e+03]
Found heuristic solution: objective 211909
Presolve removed 165 rows and 4592 columns
Presolve time: 0.52s
Presolved: 2033 rows, 29026 columns, 229494 nonzeros
Variable types: 0 continuous, 29026 integer (28165 binary)

Root relaxation: objective 1.400544e+05, 1195 iterations, 0.06 seconds

    Nodes    |    Current Node    |     Objective Bounds      |     Work
 Expl Unexpl |  Obj  Depth IntInf | Incumbent    BestBd   Gap | It/Node Time

     0     0 140054.407    0   52 211909.467 140054.407  33.9%     -    0s
H    0     0                    140957.25202 140054.407  0.64%     -    0s
H    0     0                    140165.80971 140054.407  0.08%     -    1s
     0     0 140140.810    0   60 140165.810 140140.810  0.02%     -    1s
     0     0 140140.810    0   44 140165.810 140140.810  0.02%     -    1s
H    0     0                    140164.80971 140140.810  0.02%     -    1s
     0     0 140148.656    0   98 140164.810 140148.656  0.01%     -    2s
     0     1 140148.989    0   96 140164.810 140148.989  0.01%     -    2s

Cutting planes:
  Gomory: 4
  Cover: 13
  Clique: 92
  MIR: 21

Explored 1 nodes (3962 simplex iterations) in 2.28 seconds
Thread count was 1 (of 16 available processors)

Solution count 5: 140165 140166 140166 ... 211909
Pool objective bound 140165

Optimal solution found (tolerance 1.00e-04)
Best objective 1.401648097148e+05, best bound 1.401648097148e+05, gap 0.0000%
	MIPObjVal:	140164.80971479462	runtime:	2.284712076187134	patientsNumber:	175	room Occupancy:	0.37037037037037035	OR Occupancy:	0.4057389694538723
roomCost:	4490.0	genderPolicy:	0.0	transferCost:	0.0	delayCost:	65.0	overCrowdRisk:	14.0	overtime:	60.0	idleRoom:	6680.0	idleOR:	47250.0	eRoomIdle:	4060.4620140823163	eORIdle:	77545.34770071231	roomU:	0.0	orU:	0.0
Day	12	Optimize a model with 2084 rows, 28820 columns and 206993 nonzeros
Variable types: 160 continuous, 28660 integer (27844 binary)
Coefficient statistics:
  Matrix range     [1e+00, 1e+02]
  Objective range  [7e-01, 1e+03]
  Bounds range     [1e+00, 9e+01]
  RHS range        [1e+00, 3e+03]
Found heuristic solution: objective 151230
Presolve removed 165 rows and 3657 columns
Presolve time: 0.35s
Presolved: 1919 rows, 25163 columns, 168063 nonzeros
Variable types: 0 continuous, 25163 integer (24356 binary)

Root relaxation: objective 9.377370e+04, 1096 iterations, 0.05 seconds

    Nodes    |    Current Node    |     Objective Bounds      |     Work
 Expl Unexpl |  Obj  Depth IntInf | Incumbent    BestBd   Gap | It/Node Time

     0     0 93773.6972    0   39 151229.958 93773.6972  38.0%     -    0s
H    0     0                    95716.630931 93773.6972  2.03%     -    0s
H    0     0                    95083.669752 93773.6972  1.38%     -    0s
H    0     0                    94244.086749 93773.6972  0.50%     -    0s
H    0     0                    94194.086749 93773.6972  0.45%     -    0s
     0     0 94144.6274    0    4 94194.0867 94144.6274  0.05%     -    0s
     0     0 94144.6274    0    4 94194.0867 94144.6274  0.05%     -    0s
     0     0 94144.6274    0   46 94194.0867 94144.6274  0.05%     -    1s
     0     0 94175.5424    0   44 94194.0867 94175.5424  0.02%     -    1s
     0     0 94190.7676    0   44 94194.0867 94190.7676  0.00%     -    1s

Cutting planes:
  Gomory: 2
  Cover: 2
  Clique: 1
  GUB cover: 1
  Zero half: 1

Explored 0 nodes (2568 simplex iterations) in 1.25 seconds
Thread count was 1 (of 16 available processors)

Solution count 6: 94194.1 94194.1 94244.1 ... 151230
Pool objective bound 94190.8

Optimal solution found (tolerance 1.00e-04)
Best objective 9.419408674882e+04, best bound 9.419076758919e+04, gap 0.0035%
	MIPObjVal:	94194.08674881801	runtime:	1.253561019897461	patientsNumber:	180	room Occupancy:	0.5462962962962963	OR Occupancy:	0.3486578216599815
roomCost:	4020.0	genderPolicy:	0.0	transferCost:	0.0	delayCost:	90.0	overCrowdRisk:	6.0	overtime:	120.0	idleRoom:	3380.0	idleOR:	25050.0	eRoomIdle:	3198.9351561653793	eORIdle:	58329.15159265264	roomU:	0.0	orU:	0.0
Day	13	Optimize a model with 1961 rows, 21816 columns and 123401 nonzeros
Variable types: 150 continuous, 21666 integer (20901 binary)
Coefficient statistics:
  Matrix range     [1e+00, 1e+02]
  Objective range  [5e-01, 1e+03]
  Bounds range     [1e+00, 9e+01]
  RHS range        [1e+00, 3e+03]
Found heuristic solution: objective 88421.3
Presolve removed 166 rows and 2628 columns
Presolve time: 0.24s
Presolved: 1795 rows, 19188 columns, 94803 nonzeros
Variable types: 0 continuous, 19188 integer (18443 binary)

Root relaxation: objective 4.967534e+04, 914 iterations, 0.03 seconds

    Nodes    |    Current Node    |     Objective Bounds      |     Work
 Expl Unexpl |  Obj  Depth IntInf | Incumbent    BestBd   Gap | It/Node Time

     0     0 49675.3376    0   33 88421.3484 49675.3376  43.8%     -    0s
H    0     0                    51409.508715 49675.3376  3.37%     -    0s
H    0     0                    50515.891265 49675.3376  1.66%     -    0s
H    0     0                    50180.982358 49675.3376  1.01%     -    0s
H    0     0                    50057.304802 49675.3376  0.76%     -    0s
     0     0     cutoff    0      50057.3048 50057.3048  0.00%     -    0s

Cutting planes:
  Cover: 11
  Clique: 38
  MIR: 16
  GUB cover: 2
  Zero half: 1

Explored 0 nodes (1168 simplex iterations) in 0.49 seconds
Thread count was 1 (of 16 available processors)

Solution count 5: 50057.3 50181 50515.9 ... 88421.3
Pool objective bound 50057.3

Optimal solution found (tolerance 1.00e-04)
Best objective 5.005730480181e+04, best bound 5.005730480181e+04, gap 0.0000%
	MIPObjVal:	50057.30480180697	runtime:	0.494006872177124	patientsNumber:	176	room Occupancy:	0.7175925925925926	OR Occupancy:	0.9657513113236655
roomCost:	2550.0	genderPolicy:	0.0	transferCost:	0.0	delayCost:	195.0	overCrowdRisk:	2.0	overtime:	120.0	idleRoom:	1220.0	idleOR:	1100.0	eRoomIdle:	1998.866038236786	eORIdle:	42871.43876357018	roomU:	0.0	orU:	0.0
Violations:	0	Total ObjVal:	18913	Runtime:	0.0	Room occupancy ratio:	0.4545237	OR occupancy ratio:	0.34629628
The dynamic result in	./Results/FS3LowO/or_pas_dept2_short03_sol0.xml	violations:	0	total ObjVal:	18913	runtime:	34.437	average_patient_number:	170
